Set parameter TokenServer to value "hpc-licenses.hpcc.usc.edu"
Set parameter TimeLimit to value 3600
Gurobi Optimizer version 9.5.1 build v9.5.1rc2 (linux64)
Thread count: 20 physical cores, 20 logical processors, using up to 20 threads
Optimize a model with 6007 rows, 4529 columns and 24534 nonzeros
Model fingerprint: 0x439d03fa
Variable types: 4506 continuous, 23 integer (23 binary)
Coefficient statistics:
  Matrix range     [1e+00, 1e+00]
  Objective range  [4e-03, 1e+00]
  Bounds range     [1e+00, 1e+00]
  RHS range        [1e+00, 5e+01]
Presolve removed 1514 rows and 1511 columns
Presolve time: 0.08s
Presolved: 4493 rows, 3018 columns, 21993 nonzeros
Variable types: 2998 continuous, 20 integer (20 binary)
Found heuristic solution: objective 296.7581260

Root relaxation: objective 2.994736e+02, 2135 iterations, 0.10 seconds (0.09 work units)

    Nodes    |    Current Node    |     Objective Bounds      |     Work
 Expl Unexpl |  Obj  Depth IntInf | Incumbent    BestBd   Gap | It/Node Time

     0     0  299.47364    0    4  296.75813  299.47364  0.92%     -    0s
H    0     0                     299.3729341  299.45787  0.03%     -    0s
     0     0  299.45787    0    4  299.37293  299.45787  0.03%     -    0s
     0     0  299.45773    0    4  299.37293  299.45773  0.03%     -    0s
     0     0  299.44865    0    4  299.37293  299.44865  0.03%     -    0s
     0     0  299.42352    0    2  299.37293  299.42352  0.02%     -    1s
     0     0     cutoff    0       299.37293  299.37293  0.00%     -    1s

Cutting planes:
  Gomory: 3
  MIR: 1
  Relax-and-lift: 34

Explored 1 nodes (3744 simplex iterations) in 1.35 seconds (0.43 work units)
Thread count was 20 (of 20 available processors)

Solution count 2: 299.373 296.758 

Optimal solution found (tolerance 1.00e-04)
Best objective 2.993729341472e+02, best bound 2.993729341472e+02, gap 0.0000%



#########node  1
V1.9
#########node  2
0.09090909090909088,0.9090909090909092
#########node  3
1.0,0.0


Total Solving Time 1.7702929973602295
obj value 299.3729341471536
Policy Regret train (Sum) 1.2671902492705043
Best Treatment Found train (%) 86.2
treatment classification acc train (%) 47.4
Policy Regret test (Sum) 171.4960881571544
Best Treatment Found test (%) 52.800000000000004
treatment classification acc test (%) 50.54
